\ENCODING=ISO-8859-1
\Problem name: instances

Minimize
 obj:
Subject To
 c1:  x1 + x2 + x3 + x4 + x5 + x6 + x7 + x8 + x9 + x10  = 1
 c2:  x11 + x12 + x13 + x14 + x15 + x16 + x17 + x18 + x19 + x20  = 1
 c3:  x21 + x22 + x23 + x24 + x25 + x26 + x27 + x28 + x29 + x30  = 1
 c4:  x31 + x32 + x33 + x34 + x35 + x36 + x37 + x38 + x39 + x40  = 1
 c5:  x41 + x42 + x43 + x44 + x45 + x46 + x47 + x48 + x49 + x50  = 1
 c6:  x51 + x52 + x53 + x54 + x55 + x56 + x57 + x58 + x59 + x60  = 1
 c7:  x61 + x62 + x63 + x64 + x65 + x66 + x67 + x68 + x69 + x70  = 1
 c8:  x71 + x72 + x73 + x74 + x75 + x76 + x77 + x78 + x79 + x80  = 1
 c9:  x81 + x82 + x83 + x84 + x85 + x86 + x87 + x88 + x89 + x90  = 1
 c10: x91 + x92 + x93 + x94 + x95 + x96 + x97 + x98 + x99 + x100  = 1
 c11: x1 + x11 + x21 + x31 + x41 + x51 + x61 + x71 + x81 + x91  = 1
 c12: x2 + x12 + x22 + x32 + x42 + x52 + x62 + x72 + x82 + x92  = 1
 c13: x3 + x13 + x23 + x33 + x43 + x53 + x63 + x73 + x83 + x93  = 1
 c14: x4 + x14 + x24 + x34 + x44 + x54 + x64 + x74 + x84 + x94  = 1
 c15: x5 + x15 + x25 + x35 + x45 + x55 + x65 + x75 + x85 + x95  = 1
 c16: x6 + x16 + x26 + x36 + x46 + x56 + x66 + x76 + x86 + x96  = 1
 c17: x7 + x17 + x27 + x37 + x47 + x57 + x67 + x77 + x87 + x97  = 1
 c18: x8 + x18 + x28 + x38 + x48 + x58 + x68 + x78 + x88 + x98  = 1
 c19: x9 + x19 + x29 + x39 + x49 + x59 + x69 + x79 + x89 + x99  = 1
 c20: x10 + x20 + x30 + x40 + x50 + x60 + x70 + x80 + x90 + x100  = 1
Bounds
 0 <= x1 <= 1
 0 <= x2 <= 1
 0 <= x3 <= 1
 0 <= x4 <= 1
 0 <= x5 <= 1
 0 <= x6 <= 1
 0 <= x7 <= 1
 0 <= x8 <= 1
 0 <= x9 <= 1
 0 <= x10 <= 1
 0 <= x11 <= 1
 0 <= x12 <= 1
 0 <= x13 <= 1
 0 <= x14 <= 1
 0 <= x15 <= 1
 0 <= x16 <= 1
 0 <= x17 <= 1
 0 <= x18 <= 1
 0 <= x19 <= 1
 0 <= x20 <= 1
 0 <= x21 <= 1
 0 <= x22 <= 1
 0 <= x23 <= 1
 0 <= x24 <= 1
 0 <= x25 <= 1
 0 <= x26 <= 1
 0 <= x27 <= 1
 0 <= x28 <= 1
 0 <= x29 <= 1
 0 <= x30 <= 1
 0 <= x31 <= 1
 0 <= x32 <= 1
 0 <= x33 <= 1
 0 <= x34 <= 1
 0 <= x35 <= 1
 0 <= x36 <= 1
 0 <= x37 <= 1
 0 <= x38 <= 1
 0 <= x39 <= 1
 0 <= x40 <= 1
 0 <= x41 <= 1
 0 <= x42 <= 1
 0 <= x43 <= 1
 0 <= x44 <= 1
 0 <= x45 <= 1
 0 <= x46 <= 1
 0 <= x47 <= 1
 0 <= x48 <= 1
 0 <= x49 <= 1
 0 <= x50 <= 1
 0 <= x51 <= 1
 0 <= x52 <= 1
 0 <= x53 <= 1
 0 <= x54 <= 1
 0 <= x55 <= 1
 0 <= x56 <= 1
 0 <= x57 <= 1
 0 <= x58 <= 1
 0 <= x59 <= 1
 0 <= x60 <= 1
 0 <= x61 <= 1
 0 <= x62 <= 1
 0 <= x63 <= 1
 0 <= x64 <= 1
 0 <= x65 <= 1
 0 <= x66 <= 1
 0 <= x67 <= 1
 0 <= x68 <= 1
 0 <= x69 <= 1
 0 <= x70 <= 1
 0 <= x71 <= 1
 0 <= x72 <= 1
 0 <= x73 <= 1
 0 <= x74 <= 1
 0 <= x75 <= 1
 0 <= x76 <= 1
 0 <= x77 <= 1
 0 <= x78 <= 1
 0 <= x79 <= 1
 0 <= x80 <= 1
 0 <= x81 <= 1
 0 <= x82 <= 1
 0 <= x83 <= 1
 0 <= x84 <= 1
 0 <= x85 <= 1
 0 <= x86 <= 1
 0 <= x87 <= 1
 0 <= x88 <= 1
 0 <= x89 <= 1
 0 <= x90 <= 1
 0 <= x91 <= 1
 0 <= x92 <= 1
 0 <= x93 <= 1
 0 <= x94 <= 1
 0 <= x95 <= 1
 0 <= x96 <= 1
 0 <= x97 <= 1
 0 <= x98 <= 1
 0 <= x99 <= 1
 0 <= x100 <= 1
Binaries
 x1  x2  x3  x4  x5  x6  x7  x8  x9  x10  x11  x12  x13  x14  x15  x16  x17 
 x18  x19  x20  x21  x22  x23  x24  x25  x26  x27  x28  x29  x30  x31  x32 
 x33  x34  x35  x36  x37  x38  x39  x40  x41  x42  x43  x44  x45  x46  x47 
 x48  x49  x50  x51  x52  x53  x54  x55  x56  x57  x58  x59  x60  x61  x62 
 x63  x64  x65  x66  x67  x68  x69  x70  x71  x72  x73  x74  x75  x76  x77 
 x78  x79  x80  x81  x82  x83  x84  x85  x86  x87  x88  x89  x90  x91  x92 
 x93  x94  x95  x96  x97  x98  x99  x100 
End
